db/data/740824295292167952653765172647716288.z3.out
-------------------
2500.118316467
